Set parameter TSPort to value 51199
Set parameter TokenServer to value "open-license1.lanl.gov"
Set parameter TimeLimit to value 256
Set parameter Threads to value 1
Gurobi Optimizer version 10.0.3 build v10.0.3rc0 (linux64)

CPU model: Intel(R) Xeon(R) CPU E5-2695 v4 @ 2.10GHz, instruction set [SSE2|AVX|AVX2]
Thread count: 36 physical cores, 72 logical processors, using up to 1 threads

Optimize a model with 0 rows, 598 columns and 0 nonzeros
Model fingerprint: 0x370c0171
Model has 2616 quadratic objective terms
Variable types: 0 continuous, 598 integer (598 binary)
Coefficient statistics:
  Matrix range     [0e+00, 0e+00]
  Objective range  [2e+00, 3e+01]
  QObjective range [8e+00, 8e+00]
  Bounds range     [1e+00, 1e+00]
  RHS range        [0e+00, 0e+00]
Found heuristic solution: objective 0.0000000
Found heuristic solution: objective -1012.000000
Found heuristic solution: objective -3654.000000
Found heuristic solution: objective -3676.000000
Presolve removed 0 rows and 1 columns
Presolve time: 0.24s
Presolved: 2615 rows, 3212 columns, 7845 nonzeros
Variable types: 0 continuous, 3212 integer (3212 binary)

Root relaxation: objective -4.948000e+03, 768 iterations, 0.02 seconds (0.01 work units)

    Nodes    |    Current Node    |     Objective Bounds      |     Work
 Expl Unexpl |  Obj  Depth IntInf | Incumbent    BestBd   Gap | It/Node Time

     0     0 -4948.0000    0  597 -3676.0000 -4948.0000  34.6%     -    0s
     0     0 -4518.5000    0  829 -3676.0000 -4518.5000  22.9%     -    0s
     0     0 -4517.5000    0  825 -3676.0000 -4517.5000  22.9%     -    0s
     0     0 -4413.5000    0  895 -3676.0000 -4413.5000  20.1%     -    0s
     0     0 -4413.5000    0  878 -3676.0000 -4413.5000  20.1%     -    0s
     0     2 -4413.3333    0  878 -3676.0000 -4413.3333  20.1%     -    1s
   511   474 -3761.0000  101 1308 -3676.0000 -4393.5000  19.5%  95.3    5s
   533   489 -4070.8235   32 1740 -3676.0000 -4070.8235  10.7%  91.3   10s
   542   495 -3836.0000   83 2017 -3676.0000 -4012.1904  9.15%  89.8   15s
   551   501 -3977.3781   30 2201 -3676.0000 -3977.3781  8.20%  88.4   20s
   560   507 -3947.1012    6 2456 -3676.0000 -3947.1012  7.37%  86.9   27s
   563   509 -3871.0000   77 2576 -3676.0000 -3941.7091  7.23%  86.5   30s
   568   512 -3689.5000  122 2648 -3676.0000 -3924.1550  6.75%  85.7   35s
   575   517 -3761.0000   95 2702 -3676.0000 -3908.7437  6.33%  84.7   42s
   581   521 -3905.9421   34 2752 -3676.0000 -3905.9421  6.26%  83.8   45s
   588   525 -3896.3598   68 2741 -3676.0000 -3896.3598  5.99%  82.8   51s
   595   530 -3890.4609   56 2768 -3676.0000 -3890.4609  5.83%  81.8   55s
   602   535 -3884.9572    5 2800 -3676.0000 -3884.9572  5.68%  80.9   60s
   612   541 -3745.0000  103 2829 -3676.0000 -3881.5923  5.59%  79.5   65s
   622   548 -3876.8404   51 2833 -3676.0000 -3876.8404  5.46%  78.3   70s
   633   555 -3872.5317   32 2853 -3676.0000 -3872.5317  5.35%  76.9   75s
   648   565 -3868.9947   55 2875 -3676.0000 -3868.9947  5.25%  75.1   80s
   662   575 -3810.0000   90 2877 -3676.0000 -3865.2819  5.15%  73.5   85s
   680   587 -3861.8809   58 2866 -3676.0000 -3861.8809  5.06%  71.6   90s
   701   601 -3860.2039   45 2897 -3676.0000 -3860.2039  5.01%  69.4   95s
   710   608 -3812.0000   89 2571 -3676.0000 -3860.2028  5.01%   352  102s
   711   608 -3761.0000  101 2783 -3676.0000 -3860.2028  5.01%   352  108s
   712   609 -3745.0000  103 2839 -3676.0000 -3860.2028  5.01%   351  111s
   723   616 -3808.0000   86 2899 -3676.0000 -3859.1973  4.98%   346  115s
   733   623 -3855.7712   32 2891 -3676.0000 -3855.7712  4.89%   341  120s
   743   630 -3853.7568   11 2897 -3676.0000 -3853.7568  4.84%   337  125s
   755   638 -3784.0000   90 2882 -3676.0000 -3851.7502  4.78%   331  130s
   765   644 -3849.1973   26 2891 -3676.0000 -3849.1973  4.71%   327  135s
   776   652 -3817.0000   87 2900 -3676.0000 -3846.5763  4.64%   322  140s
   791   662 -3844.7672   39 2908 -3676.0000 -3844.7672  4.59%   316  145s
   809   674 -3843.2247   64 2923 -3676.0000 -3843.2247  4.55%   309  150s
   826   685 -3812.0000   89 2936 -3676.0000 -3842.0484  4.52%   303  155s
   843   696 -3841.1010   11 2955 -3676.0000 -3841.1010  4.49%   297  160s
   862   709 -3810.0000   90 2970 -3676.0000 -3840.3364  4.47%   290  165s
   877   719 -3799.0000   87 2953 -3676.0000 -3839.3558  4.44%   285  170s
   893   730 -3838.7773   10 2944 -3676.0000 -3838.7773  4.43%   280  180s
   895   733 -3836.3113   19 2894 -3676.0000 -3836.3113  4.36%   443  185s
   899   736 -3830.5732   21 2793 -3676.0000 -3836.3113  4.36%   455  191s
   902   738 -3827.2235   23 2748 -3676.0000 -3836.3113  4.36%   463  195s
   906   740 -3822.2584   25 2700 -3676.0000 -3836.3113  4.36%   479  201s
   910   743 -3821.4108   27 2671 -3676.0000 -3836.3113  4.36%   487  205s
   914   746 -3818.6007   29 2597 -3676.0000 -3836.3113  4.36%   500  210s
   918   748 -3811.4690   31 2568 -3676.0000 -3836.3113  4.36%   512  216s
   922   751 -3809.7558   33 2509 -3676.0000 -3836.3113  4.36%   520  220s
   928   755 -3803.9081   36 2430 -3676.0000 -3836.3113  4.36%   533  225s
   934   759 -3797.7177   39 2399 -3676.0000 -3836.3113  4.36%   543  230s
   939   762 -3790.1659   41 2367 -3676.0000 -3836.3113  4.36%   554  235s
   946   767 -3786.7830   45 2325 -3676.0000 -3836.3113  4.36%   562  241s
   953   772 -3775.3923   48 2292 -3676.0000 -3836.3113  4.36%   571  245s
   961   777 -3778.1086   52 2237 -3676.0000 -3836.3113  4.36%   581  250s
   972   784 -3768.9755   58 2184 -3676.0000 -3836.3113  4.36%   589  255s

Cutting planes:
  Gomory: 19
  MIR: 91
  Flow cover: 1139
  Zero half: 400
  Mod-K: 6
  RLT: 109
  BQP: 165

Explored 974 nodes (580147 simplex iterations) in 256.00 seconds (289.29 work units)
Thread count was 1 (of 72 available processors)

Solution count 4: -3676 -3654 -1012 0 

Time limit reached
Best objective -3.676000000000e+03, best bound -3.836000000000e+03, gap 4.3526%

User-callback calls 20297, time in user-callback 0.09 sec

BQP_SOLUTION, 598, 2616, -1344.000000, 256.001080, 1, 1, -1, 1, -1, 1, 1, 1, -1, -1, -1, 1, 1, -1, -1, -1, 1, -1, -1, -1, -1, 1, 1, -1, -1, -1, 1, 1, -1, -1, -1, 1, 1, -1, -1, -1, 1, 1, -1, -1, 1, -1, 1, 1, -1, -1, 1, 1, 1, -1, -1, 1, -1, 1, -1, 1, -1, 1, -1, -1, 1, -1, 1, -1, -1, -1, 1, -1, -1, 1, 1, -1, 1, -1, -1, 1, -1, -1, -1, -1, 1, -1, 1, -1, -1, 1, -1, 1, -1, -1, 1, -1, -1, 1, -1, 1, -1, -1, 1, -1, 1, 1, -1, 1, -1, 1, 1, -1, 1, 1, 1, -1, -1, 1, 1, 1, 1, -1, 1, 1, 1, -1, 1, 1, 1, 1, -1, 1, 1, -1, 1, -1, 1, 1, 1, 1, 1, 1, 1, 1, 1, -1, 1, 1, 1, 1, -1, 1, 1, -1, 1, -1, 1, 1, 1, 1, -1, 1, 1, 1, 1, -1, 1, 1, -1, 1, 1, 1, 1, 1, 1, -1, 1, 1, -1, 1, 1, 1, 1, 1, 1, 1, 1, 1, 1, 1, 1, 1, 1, 1, 1, 1, 1, 1, 1, 1, 1, 1, 1, 1, 1, 1, 1, 1, 1, 1, 1, 1, 1, 1, 1, 1, 1, 1, 1, 1, 1, 1, 1, 1, 1, 1, 1, 1, 1, 1, 1, 1, 1, 1, 1, -1, 1, 1, 1, 1, 1, -1, 1, 1, 1, 1, 1, 1, 1, -1, 1, 1, 1, 1, 1, 1, 1, -1, 1, -1, 1, 1, 1, 1, -1, 1, 1, 1, 1, -1, 1, 1, -1, 1, -1, 1, 1, 1, 1, -1, 1, 1, 1, 1, -1, 1, -1, 1, -1, 1, 1, 1, 1, 1, -1, 1, -1, -1, 1, -1, 1, 1, 1, 1, 1, -1, -1, -1, 1, -1, -1, -1, -1, 1, -1, -1, -1, 1, -1, -1, 1, -1, -1, 1, -1, -1, -1, 1, -1, -1, -1, -1, 1, -1, -1, -1, 1, 1, -1, -1, -1, -1, 1, -1, -1, -1, -1, 1, -1, 1, -1, -1, -1, -1, 1, -1, -1, -1, 1, 1, -1, 1, 1, -1, -1, 1, 1, 1, -1, -1, -1, -1, 1, 1, 1, -1, 1, 1, 1, -1, 1, 1, -1, 1, -1, -1, 1, -1, 1, 1, -1, 1, 1, 1, -1, 1, 1, -1, 1, 1, -1, 1, -1, 1, 1, -1, 1, -1, 1, 1, -1, -1, -1, 1, 1, -1, -1, 1, 1, -1, -1, -1, 1, -1, -1, -1, -1, -1, 1, -1, 1, -1, -1, 1, -1, -1, -1, -1, -1, 1, -1, 1, -1, -1, -1, -1, -1, -1, 1, -1, -1, -1, -1, -1, -1, -1, -1, -1, -1, 1, -1, -1, -1, 1, -1, -1, -1, -1, 1, -1, -1, -1, 1, 1, -1, -1, -1, 1, -1, -1, -1, -1, -1, -1, -1, -1, 1, 1, -1, -1, -1, -1, 1, -1, -1, -1, -1, 1, -1, -1, -1, 1, 1, 1, -1, -1, -1, 1, -1, 1, -1, -1, 1, -1, -1, -1, -1, 1, 1, -1, 1, -1, 1, 1, -1, -1, 1, 1, 1, -1, -1, -1, 1, 1, -1, -1, -1, 1, 1, 1, -1, -1, 1, -1, -1, 1, 1, 1, -1, -1, -1, 1, 1, 1, -1, -1, -1, 1, 1, -1, -1, 1, 1, 1, -1, -1, -1, 1, 1, -1, -1, 1, 1, -1, -1, -1, 1, 1, 1, 1, -1, -1, 1, 1, -1, -1, 1, 1, 1, -1, 1, -1, 1, 1, 1, 1, -1, 1, 1, -1, 1, -1
BQP_DATA, 598, 2616, -1344.000000, -1504.000000, -3676.000000, -3836.000000, 256.001080, 1655, 974
